New structure
1.0
        3.6240000725         0.0000000000         0.0000000000
        0.0000000000         6.2760000229         0.0000000000
        0.0000000000         0.0000000000        20.0000000000
    N   Ca
    2    4
Direct
     0.000000000         0.000000000         0.163000000
     0.500000000         0.500000000         0.163000000
     0.000000000         0.333333333         0.100000000
     0.500000000         0.166666666         0.226000000
     0.500000000         0.833333333         0.100000000
     0.000000000         0.666666666         0.226000000
