New structure
1.0
        6.2760000000         0.0000000000         0.0000000000
        0.0000000000         3.6240000000         0.0000000000
        0.0000000000         0.0000000000        20.0000000000
    N   Ca
    2    4
Direct
		0.000000000		0.000000000		0.163000000
		0.500000000		0.500000000		0.163000000
		0.333333333		0.000000000		0.100000000
		0.166666666		0.500000000		0.226000000
		0.833333333		0.500000000		0.100000000
		0.666666666		0.000000000		0.226000000
