P
1.0
        3.3100000000         0.0000000000         0.0000000000
        0.0000000000         4.3170000000         0.0000000000
        0.0000000000         0.0000000000        12.1560000000
    P
    4
Direct
     0.000000000         0.000000000         0.100000000
     0.000000000         0.841000000         0.277000000
     0.500000000         0.500000000         0.277000000
     0.500000000         0.341000000         0.100000000
